N = 13;
H = 6;
T = 2;

avail = array3d(1..N, 1..H, 1..T, [8, 5, 7, 6, 3, 1, 10, 3, 4, 9, 6, 1, 1, 4, 4, 6, 1, 6, 4, 2, 2, 1, 8, 1, 7, 4, 2, 9, 4, 3, 2, 7, 8, 2, 3, 10, 3, 6, 8, 0, 4, 6, 4, 6, 8, 0, 0, 10, 0, 2, 9, 7, 2, 4, 0, 2, 0, 7, 7, 2, 10, 3, 8, 5, 2, 4, 1, 1, 7, 1, 0, 2, 10, 2, 3, 8, 2, 9, 8, 6, 10, 5, 9, 5, 8, 0, 6, 3, 9, 6, 7, 6, 0, 10, 5, 8, 4, 5, 6, 2, 10, 4, 5, 6, 6, 4, 2, 0, 2, 0, 7, 9, 10, 3, 9, 6, 1, 3, 6, 10, 1, 8, 10, 9, 9, 4, 1, 5, 7, 0, 5, 2, 3, 8, 5, 8, 1, 9, 8, 8, 10, 9, 10, 10, 6, 7, 7, 6, 9, 9, 2, 6, 7, 9, 2, 3]);

r = array2d(1..H, 1..T, [3, 3, 6, 3, 3, 4, 6, 3, 2, 3, 3, 6]);
